20
4727
-577 -563 -917 -916 -481 -457 -471 -103 -75 -644 -203 -804 -162 -844 -237 -785 -558 -387 -15 -176 
-760 -235 -776 -301 -127 -95 -354 -954 -407 -144 -243 -983 -58 -160 -899 -891 -616 -369 -993 -691 
-364 -547 -494 -878 -390 -83 -662 -299 -469 -28 -827 -229 -262 -602 -881 -389 -49 -234 -694 -455 
730 936 437 139 447 687 29 63 407 373 753 771 271 598 648 660 32 661 311 501 